MARKOV
440
2 2 2 2 2 2 2 2 2 2 2 2 2 2 2 2 2 2 2 2 2 2 2 2 2 2 2 2 2 2 2 2 2 2 2 2 2 2 2 2 2 2 2 2 2 2 2 2 2 2 2 2 2 2 2 2 2 2 2 2 2 2 2 2 2 2 2 2 2 2 2 2 2 2 2 2 2 2 2 2 2 2 2 2 2 2 2 2 2 2 2 2 2 2 2 2 2 2 2 2 2 2 2 2 2 2 2 2 2 2 2 2 2 2 2 2 2 2 2 2 2 2 2 2 2 2 2 2 2 2 2 2 2 2 2 2 2 2 2 2 2 2 2 2 2 2 2 2 2 2 2 2 2 2 2 2 2 2 2 2 2 2 2 2 2 2 2 2 2 2 2 2 2 2 2 2 2 2 2 2 2 2 2 2 2 2 2 2 2 2 2 2 2 2 2 2 2 2 2 2 2 2 2 2 2 2 2 2 2 2 2 2 2 2 2 2 2 2 2 2 2 2 2 2 2 2 2 2 2 2 2 2 2 2 2 2 2 2 2 2 2 2 2 2 2 2 2 2 2 2 2 2 2 2 2 2 2 2 2 2 2 2 2 2 2 2 2 2 2 2 2 2 2 2 2 2 2 2 2 2 2 2 2 2 2 2 2 2 2 2 2 2 2 2 2 2 2 2 2 2 2 2 2 2 2 2 2 2 2 2 2 2 2 2 2 2 2 2 2 2 2 2 2 2 2 2 2 2 2 2 2 2 2 2 2 2 2 2 2 2 2 2 2 2 2 2 2 2 2 2 2 2 2 2 2 2 2 2 2 2 2 2 2 2 2 2 2 2 2 2 2 2 2 2 2 2 2 2 2 2 2 2 2 2 2 2 2 2 2 2 2 2 2 2 2 2 2 2 2 2 2 2 2 2 2 2 2 2 2 2 2 2 2 2 2 2 2 2 2 2 2 2 2 2 2 2 2 2 2 2 2 2 2 2 2 2 2 2 2 2 
440
3	407	212	0
3	349	156	1
3	278	120	2
3	101	114	3
1	4
3	287	325	5
4	309	33	149	6
3	152	153	7
2	263	8
2	110	9
3	174	234	10
3	318	397	11
3	319	66	12
2	129	13
1	14
4	308	421	206	15
3	370	153	16
3	330	384	17
3	39	81	18
3	34	220	19
3	424	168	20
2	156	21
4	334	54	99	22
3	286	0	23
4	388	431	9	24
4	4	169	138	25
3	421	429	26
3	334	236	27
3	157	202	28
4	121	326	142	29
3	111	331	30
3	232	289	31
2	195	32
1	33
3	358	255	34
3	244	95	35
5	433	299	274	221	36
4	133	340	72	37
3	158	422	38
3	168	375	39
3	205	236	40
4	301	157	336	41
4	57	207	384	42
3	96	73	43
3	4	267	44
4	267	431	168	45
4	240	332	90	46
3	310	269	47
3	343	330	48
2	340	49
3	310	228	50
3	127	197	51
2	338	52
3	42	10	53
2	40	54
2	410	55
2	4	56
2	63	57
2	151	58
3	13	419	59
2	179	60
2	41	61
4	267	307	263	62
1	63
3	71	157	64
3	125	370	65
3	182	309	66
3	414	275	67
2	162	68
3	92	170	69
3	310	125	70
1	71
3	301	25	72
3	95	83	73
5	82	348	259	285	74
1	75
3	421	357	76
3	391	49	77
3	391	379	78
3	258	388	79
3	157	417	80
3	287	373	81
3	107	239	82
4	267	79	206	83
1	84
3	346	323	85
2	89	86
3	8	154	87
3	4	26	88
3	33	44	89
3	57	287	90
3	295	209	91
3	267	5	92
3	224	23	93
3	196	417	94
3	361	322	95
3	387	402	96
3	365	117	97
3	295	154	98
3	417	148	99
3	57	242	100
3	417	115	101
3	317	340	102
3	178	157	103
3	134	359	104
3	295	383	105
3	260	270	106
3	128	16	107
3	118	432	108
3	396	98	109
3	301	342	110
3	244	351	111
1	112
3	154	342	113
3	61	215	114
3	405	172	115
4	26	426	102	116
2	28	117
1	118
1	119
2	254	120
3	7	72	121
3	219	168	122
3	295	21	123
3	322	57	124
2	369	125
3	4	429	126
3	381	208	127
3	68	70	128
4	376	45	325	129
1	130
2	17	131
2	371	132
3	87	316	133
4	4	79	202	134
3	309	329	135
3	293	374	136
3	56	421	137
3	376	388	138
3	28	402	139
3	123	129	140
2	366	141
3	194	150	142
3	257	234	143
2	262	144
3	173	155	145
3	235	47	146
2	385	147
3	405	154	148
2	339	149
3	4	235	150
3	308	303	151
2	143	152
3	57	17	153
3	4	421	154
3	32	347	155
4	4	367	66	156
1	157
3	229	103	158
3	157	430	159
3	308	431	160
3	157	365	161
3	119	369	162
3	56	367	163
2	138	164
3	63	331	165
3	100	197	166
1	167
3	71	322	168
3	318	45	169
3	322	409	170
3	34	76	171
3	56	267	172
3	322	84	173
3	157	20	174
3	145	422	175
1	176
3	128	17	177
1	178
4	46	354	140	179
3	190	77	180
2	116	181
1	182
3	2	211	183
2	137	184
3	388	11	185
3	344	15	186
3	370	206	187
3	388	9	188
3	276	124	189
3	143	42	190
2	187	191
2	439	192
1	193
3	264	381	194
3	369	254	195
1	196
2	38	197
2	206	198
3	65	64	199
2	16	200
4	334	55	364	201
3	267	110	202
3	225	420	203
2	150	204
3	157	341	205
3	4	110	206
2	48	207
3	320	370	208
3	28	390	209
1	210
2	389	211
3	125	52	212
3	324	166	213
3	388	34	214
3	157	423	215
3	305	297	216
1	217
2	19	218
3	388	295	219
3	413	342	220
2	163	221
4	248	44	390	222
3	360	154	223
4	369	310	134	224
3	200	359	225
1	226
3	162	139	227
3	125	172	228
3	304	370	229
1	230
2	286	231
3	193	287	232
2	29	233
3	157	435	234
3	421	24	235
2	62	236
3	119	57	237
3	189	408	238
3	57	272	239
2	412	240
1	241
3	294	35	242
3	365	30	243
2	337	244
3	93	333	245
3	308	218	246
3	118	294	247
3	361	398	248
3	287	370	249
3	26	91	250
3	245	135	251
3	291	149	252
3	162	374	253
3	267	401	254
2	405	255
2	317	256
3	157	351	257
3	343	90	258
3	282	327	259
3	304	15	260
3	136	80	261
1	262
3	318	164	263
3	320	424	264
3	165	399	265
2	425	266
1	267
1	268
3	71	188	269
3	355	214	270
3	118	343	271
3	20	244	272
3	219	162	273
3	224	439	274
3	144	86	275
3	370	368	276
1	277
3	231	435	278
3	355	227	279
3	33	306	280
4	171	147	266	281
4	278	401	351	282
2	213	283
3	339	395	284
3	67	8	285
1	286
1	287
3	105	97	288
3	295	432	289
2	251	290
3	369	288	291
1	292
1	293
2	343	294
2	287	295
3	417	1	296
3	434	183	297
3	400	197	298
3	88	393	299
1	300
2	33	301
1	302
2	342	303
2	178	304
3	246	159	305
3	388	31	306
3	33	56	307
1	308
2	318	309
2	119	310
3	125	85	311
3	90	208	312
2	21	313
3	177	161	314
1	315
3	144	26	316
3	109	151	317
1	318
2	367	319
2	84	320
3	361	223	321
1	322
3	286	312	323
3	418	400	324
4	318	33	384	325
3	104	380	326
3	320	363	327
1	328
3	162	221	329
2	368	330
2	35	331
2	398	332
2	362	333
2	26	334
4	192	59	382	335
3	98	58	336
4	267	219	187	337
4	119	105	160	338
3	137	138	339
3	318	163	340
3	353	336	341
3	376	318	342
1	343
3	301	423	344
3	78	285	345
3	249	237	346
3	56	52	347
3	46	222	348
3	295	304	349
1	350
3	71	360	351
4	284	250	428	352
2	344	353
3	420	131	354
4	358	219	303	355
3	322	158	356
3	295	198	357
3	137	44	358
3	310	369	359
2	322	360
2	71	361
3	314	420	362
3	212	427	363
3	175	43	364
3	63	343	365
3	298	53	366
4	33	421	164	367
3	287	383	368
1	369
2	157	370
4	26	252	69	371
3	406	122	372
2	24	373
3	301	185	374
3	187	113	375
2	293	376
3	370	423	377
3	204	253	378
3	256	94	379
3	372	113	380
3	286	32	381
3	222	243	382
2	202	383
3	388	56	384
3	18	279	385
3	61	377	386
3	406	273	387
2	308	388
3	437	356	389
3	310	57	390
2	193	391
3	261	386	392
3	391	34	393
3	173	427	394
3	48	199	395
3	301	358	396
2	172	397
3	343	188	398
3	203	345	399
4	311	398	184	400
3	357	160	401
3	293	11	402
2	15	403
1	404
3	301	303	405
2	280	406
2	437	407
3	421	438	408
3	357	436	409
3	180	378	410
1	411
3	50	321	412
3	228	223	413
3	301	137	414
1	415
1	416
2	15	417
3	391	344	418
3	84	282	419
2	222	420
2	267	421
2	394	422
4	376	287	185	423
3	361	360	424
3	146	296	425
3	126	15	426
3	231	254	427
2	238	428
3	301	8	429
3	407	195	430
2	432	431
3	63	343	432
3	13	12	433
3	391	417	434
3	310	369	435
3	365	191	436
3	84	351	437
2	269	438
3	351	83	439

8
 0.000000 1.000000
 1.000000 0.000000
 1.000000 0.000000
 1.000000 0.000000

8
 1.000000 0.000000
 1.000000 0.000000
 1.000000 0.000000
 0.000000 1.000000

8
 0.000000 1.000000
 1.000000 0.000000
 1.000000 0.000000
 1.000000 0.000000

8
 0.000000 1.000000
 0.000000 1.000000
 0.000000 1.000000
 1.000000 0.000000

2
 0.500000 0.500000

8
 0.000000 1.000000
 0.000000 1.000000
 0.000000 1.000000
 1.000000 0.000000

16
 0.000000 1.000000
 1.000000 0.000000
 1.000000 0.000000
 1.000000 0.000000
 1.000000 0.000000
 1.000000 0.000000
 1.000000 0.000000
 1.000000 0.000000

8
 1.000000 0.000000
 0.000000 1.000000
 0.000000 1.000000
 0.000000 1.000000

4
 0.000000 1.000000
 1.000000 0.000000

4
 0.000000 1.000000
 1.000000 0.000000

8
 0.000000 1.000000
 0.000000 1.000000
 0.000000 1.000000
 1.000000 0.000000

8
 0.000000 1.000000
 1.000000 0.000000
 1.000000 0.000000
 1.000000 0.000000

8
 1.000000 0.000000
 1.000000 0.000000
 1.000000 0.000000
 0.000000 1.000000

4
 0.000000 1.000000
 1.000000 0.000000

2
 0.500000 0.500000

16
 0.000000 1.000000
 0.000000 1.000000
 0.000000 1.000000
 0.000000 1.000000
 0.000000 1.000000
 0.000000 1.000000
 0.000000 1.000000
 1.000000 0.000000

8
 0.000000 1.000000
 1.000000 0.000000
 1.000000 0.000000
 1.000000 0.000000

8
 0.000000 1.000000
 1.000000 0.000000
 1.000000 0.000000
 1.000000 0.000000

8
 0.000000 1.000000
 1.000000 0.000000
 1.000000 0.000000
 1.000000 0.000000

8
 0.000000 1.000000
 1.000000 0.000000
 1.000000 0.000000
 1.000000 0.000000

8
 0.000000 1.000000
 0.000000 1.000000
 0.000000 1.000000
 1.000000 0.000000

4
 0.000000 1.000000
 1.000000 0.000000

16
 0.000000 1.000000
 0.000000 1.000000
 0.000000 1.000000
 0.000000 1.000000
 0.000000 1.000000
 0.000000 1.000000
 0.000000 1.000000
 1.000000 0.000000

8
 1.000000 0.000000
 1.000000 0.000000
 1.000000 0.000000
 0.000000 1.000000

16
 0.000000 1.000000
 0.000000 1.000000
 0.000000 1.000000
 0.000000 1.000000
 0.000000 1.000000
 0.000000 1.000000
 0.000000 1.000000
 1.000000 0.000000

16
 0.000000 1.000000
 1.000000 0.000000
 1.000000 0.000000
 1.000000 0.000000
 1.000000 0.000000
 1.000000 0.000000
 1.000000 0.000000
 1.000000 0.000000

8
 0.000000 1.000000
 1.000000 0.000000
 1.000000 0.000000
 1.000000 0.000000

8
 0.000000 1.000000
 0.000000 1.000000
 0.000000 1.000000
 1.000000 0.000000

8
 0.000000 1.000000
 0.000000 1.000000
 0.000000 1.000000
 1.000000 0.000000

16
 0.000000 1.000000
 1.000000 0.000000
 1.000000 0.000000
 1.000000 0.000000
 1.000000 0.000000
 1.000000 0.000000
 1.000000 0.000000
 1.000000 0.000000

8
 0.000000 1.000000
 0.000000 1.000000
 0.000000 1.000000
 1.000000 0.000000

8
 0.000000 1.000000
 0.000000 1.000000
 0.000000 1.000000
 1.000000 0.000000

4
 0.000000 1.000000
 1.000000 0.000000

2
 0.500000 0.500000

8
 0.000000 1.000000
 1.000000 0.000000
 1.000000 0.000000
 1.000000 0.000000

8
 0.000000 1.000000
 1.000000 0.000000
 1.000000 0.000000
 1.000000 0.000000

32
 0.000000 1.000000
 0.000000 1.000000
 0.000000 1.000000
 0.000000 1.000000
 0.000000 1.000000
 0.000000 1.000000
 0.000000 1.000000
 0.000000 1.000000
 0.000000 1.000000
 0.000000 1.000000
 0.000000 1.000000
 0.000000 1.000000
 0.000000 1.000000
 0.000000 1.000000
 0.000000 1.000000
 1.000000 0.000000

16
 0.000000 1.000000
 0.000000 1.000000
 0.000000 1.000000
 0.000000 1.000000
 0.000000 1.000000
 0.000000 1.000000
 0.000000 1.000000
 1.000000 0.000000

8
 0.000000 1.000000
 1.000000 0.000000
 1.000000 0.000000
 1.000000 0.000000

8
 1.000000 0.000000
 1.000000 0.000000
 1.000000 0.000000
 0.000000 1.000000

8
 0.000000 1.000000
 0.000000 1.000000
 0.000000 1.000000
 1.000000 0.000000

16
 0.000000 1.000000
 0.000000 1.000000
 0.000000 1.000000
 0.000000 1.000000
 0.000000 1.000000
 0.000000 1.000000
 0.000000 1.000000
 1.000000 0.000000

16
 0.000000 1.000000
 1.000000 0.000000
 1.000000 0.000000
 1.000000 0.000000
 1.000000 0.000000
 1.000000 0.000000
 1.000000 0.000000
 1.000000 0.000000

8
 0.000000 1.000000
 0.000000 1.000000
 0.000000 1.000000
 1.000000 0.000000

8
 0.000000 1.000000
 0.000000 1.000000
 0.000000 1.000000
 1.000000 0.000000

16
 0.000000 1.000000
 1.000000 0.000000
 1.000000 0.000000
 1.000000 0.000000
 1.000000 0.000000
 1.000000 0.000000
 1.000000 0.000000
 1.000000 0.000000

16
 0.000000 1.000000
 1.000000 0.000000
 1.000000 0.000000
 1.000000 0.000000
 1.000000 0.000000
 1.000000 0.000000
 1.000000 0.000000
 1.000000 0.000000

8
 1.000000 0.000000
 1.000000 0.000000
 1.000000 0.000000
 0.000000 1.000000

8
 0.000000 1.000000
 1.000000 0.000000
 1.000000 0.000000
 1.000000 0.000000

4
 0.000000 1.000000
 1.000000 0.000000

8
 1.000000 0.000000
 0.000000 1.000000
 0.000000 1.000000
 0.000000 1.000000

8
 0.000000 1.000000
 0.000000 1.000000
 0.000000 1.000000
 1.000000 0.000000

4
 0.000000 1.000000
 1.000000 0.000000

8
 1.000000 0.000000
 1.000000 0.000000
 1.000000 0.000000
 0.000000 1.000000

4
 0.000000 1.000000
 1.000000 0.000000

4
 0.000000 1.000000
 1.000000 0.000000

4
 0.000000 1.000000
 1.000000 0.000000

4
 0.000000 1.000000
 1.000000 0.000000

4
 0.000000 1.000000
 1.000000 0.000000

8
 0.000000 1.000000
 1.000000 0.000000
 1.000000 0.000000
 1.000000 0.000000

4
 0.000000 1.000000
 1.000000 0.000000

4
 0.000000 1.000000
 1.000000 0.000000

16
 0.000000 1.000000
 1.000000 0.000000
 1.000000 0.000000
 1.000000 0.000000
 1.000000 0.000000
 1.000000 0.000000
 1.000000 0.000000
 1.000000 0.000000

2
 0.500000 0.500000

8
 1.000000 0.000000
 0.000000 1.000000
 0.000000 1.000000
 0.000000 1.000000

8
 1.000000 0.000000
 0.000000 1.000000
 0.000000 1.000000
 0.000000 1.000000

8
 0.000000 1.000000
 0.000000 1.000000
 0.000000 1.000000
 1.000000 0.000000

8
 0.000000 1.000000
 0.000000 1.000000
 0.000000 1.000000
 1.000000 0.000000

4
 0.000000 1.000000
 1.000000 0.000000

8
 0.000000 1.000000
 0.000000 1.000000
 0.000000 1.000000
 1.000000 0.000000

8
 1.000000 0.000000
 1.000000 0.000000
 1.000000 0.000000
 0.000000 1.000000

2
 0.500000 0.500000

8
 0.000000 1.000000
 0.000000 1.000000
 0.000000 1.000000
 1.000000 0.000000

8
 1.000000 0.000000
 0.000000 1.000000
 0.000000 1.000000
 0.000000 1.000000

32
 0.000000 1.000000
 0.000000 1.000000
 0.000000 1.000000
 0.000000 1.000000
 0.000000 1.000000
 0.000000 1.000000
 0.000000 1.000000
 0.000000 1.000000
 0.000000 1.000000
 0.000000 1.000000
 0.000000 1.000000
 0.000000 1.000000
 0.000000 1.000000
 0.000000 1.000000
 0.000000 1.000000
 1.000000 0.000000

2
 0.500000 0.500000

8
 1.000000 0.000000
 1.000000 0.000000
 1.000000 0.000000
 0.000000 1.000000

8
 1.000000 0.000000
 1.000000 0.000000
 1.000000 0.000000
 0.000000 1.000000

8
 1.000000 0.000000
 0.000000 1.000000
 0.000000 1.000000
 0.000000 1.000000

8
 0.000000 1.000000
 0.000000 1.000000
 0.000000 1.000000
 1.000000 0.000000

8
 1.000000 0.000000
 1.000000 0.000000
 1.000000 0.000000
 0.000000 1.000000

8
 1.000000 0.000000
 1.000000 0.000000
 1.000000 0.000000
 0.000000 1.000000

8
 0.000000 1.000000
 1.000000 0.000000
 1.000000 0.000000
 1.000000 0.000000

16
 0.000000 1.000000
 0.000000 1.000000
 0.000000 1.000000
 0.000000 1.000000
 0.000000 1.000000
 0.000000 1.000000
 0.000000 1.000000
 1.000000 0.000000

2
 0.500000 0.500000

8
 0.000000 1.000000
 1.000000 0.000000
 1.000000 0.000000
 1.000000 0.000000

4
 0.000000 1.000000
 1.000000 0.000000

8
 1.000000 0.000000
 1.000000 0.000000
 1.000000 0.000000
 0.000000 1.000000

8
 1.000000 0.000000
 1.000000 0.000000
 1.000000 0.000000
 0.000000 1.000000

8
 0.000000 1.000000
 1.000000 0.000000
 1.000000 0.000000
 1.000000 0.000000

8
 0.000000 1.000000
 0.000000 1.000000
 0.000000 1.000000
 1.000000 0.000000

8
 1.000000 0.000000
 1.000000 0.000000
 1.000000 0.000000
 0.000000 1.000000

8
 1.000000 0.000000
 0.000000 1.000000
 0.000000 1.000000
 0.000000 1.000000

8
 0.000000 1.000000
 1.000000 0.000000
 1.000000 0.000000
 1.000000 0.000000

8
 1.000000 0.000000
 1.000000 0.000000
 1.000000 0.000000
 0.000000 1.000000

8
 0.000000 1.000000
 0.000000 1.000000
 0.000000 1.000000
 1.000000 0.000000

8
 1.000000 0.000000
 0.000000 1.000000
 0.000000 1.000000
 0.000000 1.000000

8
 1.000000 0.000000
 1.000000 0.000000
 1.000000 0.000000
 0.000000 1.000000

8
 0.000000 1.000000
 0.000000 1.000000
 0.000000 1.000000
 1.000000 0.000000

8
 0.000000 1.000000
 1.000000 0.000000
 1.000000 0.000000
 1.000000 0.000000

8
 1.000000 0.000000
 0.000000 1.000000
 0.000000 1.000000
 0.000000 1.000000

8
 0.000000 1.000000
 1.000000 0.000000
 1.000000 0.000000
 1.000000 0.000000

8
 0.000000 1.000000
 0.000000 1.000000
 0.000000 1.000000
 1.000000 0.000000

8
 1.000000 0.000000
 1.000000 0.000000
 1.000000 0.000000
 0.000000 1.000000

8
 1.000000 0.000000
 0.000000 1.000000
 0.000000 1.000000
 0.000000 1.000000

8
 0.000000 1.000000
 1.000000 0.000000
 1.000000 0.000000
 1.000000 0.000000

8
 0.000000 1.000000
 0.000000 1.000000
 0.000000 1.000000
 1.000000 0.000000

8
 1.000000 0.000000
 1.000000 0.000000
 1.000000 0.000000
 0.000000 1.000000

8
 0.000000 1.000000
 1.000000 0.000000
 1.000000 0.000000
 1.000000 0.000000

8
 0.000000 1.000000
 0.000000 1.000000
 0.000000 1.000000
 1.000000 0.000000

8
 0.000000 1.000000
 0.000000 1.000000
 0.000000 1.000000
 1.000000 0.000000

8
 1.000000 0.000000
 0.000000 1.000000
 0.000000 1.000000
 0.000000 1.000000

2
 0.500000 0.500000

8
 0.000000 1.000000
 0.000000 1.000000
 0.000000 1.000000
 1.000000 0.000000

8
 0.000000 1.000000
 1.000000 0.000000
 1.000000 0.000000
 1.000000 0.000000

8
 1.000000 0.000000
 1.000000 0.000000
 1.000000 0.000000
 0.000000 1.000000

16
 0.000000 1.000000
 1.000000 0.000000
 1.000000 0.000000
 1.000000 0.000000
 1.000000 0.000000
 1.000000 0.000000
 1.000000 0.000000
 1.000000 0.000000

4
 0.000000 1.000000
 1.000000 0.000000

2
 0.500000 0.500000

2
 0.500000 0.500000

4
 0.000000 1.000000
 1.000000 0.000000

8
 0.000000 1.000000
 0.000000 1.000000
 0.000000 1.000000
 1.000000 0.000000

8
 1.000000 0.000000
 1.000000 0.000000
 1.000000 0.000000
 0.000000 1.000000

8
 1.000000 0.000000
 0.000000 1.000000
 0.000000 1.000000
 0.000000 1.000000

8
 0.000000 1.000000
 0.000000 1.000000
 0.000000 1.000000
 1.000000 0.000000

4
 0.000000 1.000000
 1.000000 0.000000

8
 1.000000 0.000000
 0.000000 1.000000
 0.000000 1.000000
 0.000000 1.000000

8
 1.000000 0.000000
 0.000000 1.000000
 0.000000 1.000000
 0.000000 1.000000

8
 0.000000 1.000000
 1.000000 0.000000
 1.000000 0.000000
 1.000000 0.000000

16
 0.000000 1.000000
 0.000000 1.000000
 0.000000 1.000000
 0.000000 1.000000
 0.000000 1.000000
 0.000000 1.000000
 0.000000 1.000000
 1.000000 0.000000

2
 0.500000 0.500000

4
 0.000000 1.000000
 1.000000 0.000000

4
 0.000000 1.000000
 1.000000 0.000000

8
 0.000000 1.000000
 1.000000 0.000000
 1.000000 0.000000
 1.000000 0.000000

16
 0.000000 1.000000
 0.000000 1.000000
 0.000000 1.000000
 0.000000 1.000000
 0.000000 1.000000
 0.000000 1.000000
 0.000000 1.000000
 1.000000 0.000000

8
 1.000000 0.000000
 1.000000 0.000000
 1.000000 0.000000
 0.000000 1.000000

8
 1.000000 0.000000
 1.000000 0.000000
 1.000000 0.000000
 0.000000 1.000000

8
 0.000000 1.000000
 0.000000 1.000000
 0.000000 1.000000
 1.000000 0.000000

8
 0.000000 1.000000
 0.000000 1.000000
 0.000000 1.000000
 1.000000 0.000000

8
 0.000000 1.000000
 0.000000 1.000000
 0.000000 1.000000
 1.000000 0.000000

8
 0.000000 1.000000
 0.000000 1.000000
 0.000000 1.000000
 1.000000 0.000000

4
 0.000000 1.000000
 1.000000 0.000000

8
 0.000000 1.000000
 0.000000 1.000000
 0.000000 1.000000
 1.000000 0.000000

8
 0.000000 1.000000
 0.000000 1.000000
 0.000000 1.000000
 1.000000 0.000000

4
 0.000000 1.000000
 1.000000 0.000000

8
 1.000000 0.000000
 0.000000 1.000000
 0.000000 1.000000
 0.000000 1.000000

8
 0.000000 1.000000
 1.000000 0.000000
 1.000000 0.000000
 1.000000 0.000000

4
 0.000000 1.000000
 1.000000 0.000000

8
 1.000000 0.000000
 1.000000 0.000000
 1.000000 0.000000
 0.000000 1.000000

4
 0.000000 1.000000
 1.000000 0.000000

8
 0.000000 1.000000
 0.000000 1.000000
 0.000000 1.000000
 1.000000 0.000000

8
 0.000000 1.000000
 1.000000 0.000000
 1.000000 0.000000
 1.000000 0.000000

4
 0.000000 1.000000
 1.000000 0.000000

8
 0.000000 1.000000
 0.000000 1.000000
 0.000000 1.000000
 1.000000 0.000000

8
 0.000000 1.000000
 1.000000 0.000000
 1.000000 0.000000
 1.000000 0.000000

8
 0.000000 1.000000
 1.000000 0.000000
 1.000000 0.000000
 1.000000 0.000000

16
 0.000000 1.000000
 1.000000 0.000000
 1.000000 0.000000
 1.000000 0.000000
 1.000000 0.000000
 1.000000 0.000000
 1.000000 0.000000
 1.000000 0.000000

2
 0.500000 0.500000

8
 0.000000 1.000000
 1.000000 0.000000
 1.000000 0.000000
 1.000000 0.000000

8
 1.000000 0.000000
 1.000000 0.000000
 1.000000 0.000000
 0.000000 1.000000

8
 0.000000 1.000000
 1.000000 0.000000
 1.000000 0.000000
 1.000000 0.000000

8
 0.000000 1.000000
 0.000000 1.000000
 0.000000 1.000000
 1.000000 0.000000

8
 0.000000 1.000000
 0.000000 1.000000
 0.000000 1.000000
 1.000000 0.000000

8
 0.000000 1.000000
 1.000000 0.000000
 1.000000 0.000000
 1.000000 0.000000

4
 0.000000 1.000000
 1.000000 0.000000

8
 1.000000 0.000000
 0.000000 1.000000
 0.000000 1.000000
 0.000000 1.000000

8
 0.000000 1.000000
 0.000000 1.000000
 0.000000 1.000000
 1.000000 0.000000

2
 0.500000 0.500000

8
 0.000000 1.000000
 0.000000 1.000000
 0.000000 1.000000
 1.000000 0.000000

8
 0.000000 1.000000
 1.000000 0.000000
 1.000000 0.000000
 1.000000 0.000000

8
 1.000000 0.000000
 0.000000 1.000000
 0.000000 1.000000
 0.000000 1.000000

8
 0.000000 1.000000
 1.000000 0.000000
 1.000000 0.000000
 1.000000 0.000000

8
 0.000000 1.000000
 1.000000 0.000000
 1.000000 0.000000
 1.000000 0.000000

8
 0.000000 1.000000
 0.000000 1.000000
 0.000000 1.000000
 1.000000 0.000000

8
 1.000000 0.000000
 0.000000 1.000000
 0.000000 1.000000
 0.000000 1.000000

8
 0.000000 1.000000
 0.000000 1.000000
 0.000000 1.000000
 1.000000 0.000000

2
 0.500000 0.500000

8
 0.000000 1.000000
 0.000000 1.000000
 0.000000 1.000000
 1.000000 0.000000

2
 0.500000 0.500000

16
 0.000000 1.000000
 1.000000 0.000000
 1.000000 0.000000
 1.000000 0.000000
 1.000000 0.000000
 1.000000 0.000000
 1.000000 0.000000
 1.000000 0.000000

8
 0.000000 1.000000
 1.000000 0.000000
 1.000000 0.000000
 1.000000 0.000000

4
 0.000000 1.000000
 1.000000 0.000000

2
 0.500000 0.500000

8
 1.000000 0.000000
 1.000000 0.000000
 1.000000 0.000000
 0.000000 1.000000

4
 0.000000 1.000000
 1.000000 0.000000

8
 0.000000 1.000000
 0.000000 1.000000
 0.000000 1.000000
 1.000000 0.000000

8
 0.000000 1.000000
 0.000000 1.000000
 0.000000 1.000000
 1.000000 0.000000

8
 0.000000 1.000000
 0.000000 1.000000
 0.000000 1.000000
 1.000000 0.000000

8
 0.000000 1.000000
 0.000000 1.000000
 0.000000 1.000000
 1.000000 0.000000

8
 1.000000 0.000000
 0.000000 1.000000
 0.000000 1.000000
 0.000000 1.000000

8
 1.000000 0.000000
 1.000000 0.000000
 1.000000 0.000000
 0.000000 1.000000

4
 0.000000 1.000000
 1.000000 0.000000

4
 0.000000 1.000000
 1.000000 0.000000

2
 0.500000 0.500000

8
 1.000000 0.000000
 0.000000 1.000000
 0.000000 1.000000
 0.000000 1.000000

8
 0.000000 1.000000
 0.000000 1.000000
 0.000000 1.000000
 1.000000 0.000000

2
 0.500000 0.500000

4
 0.000000 1.000000
 1.000000 0.000000

4
 0.000000 1.000000
 1.000000 0.000000

8
 0.000000 1.000000
 0.000000 1.000000
 0.000000 1.000000
 1.000000 0.000000

4
 0.000000 1.000000
 1.000000 0.000000

16
 0.000000 1.000000
 0.000000 1.000000
 0.000000 1.000000
 0.000000 1.000000
 0.000000 1.000000
 0.000000 1.000000
 0.000000 1.000000
 1.000000 0.000000

8
 0.000000 1.000000
 1.000000 0.000000
 1.000000 0.000000
 1.000000 0.000000

8
 0.000000 1.000000
 0.000000 1.000000
 0.000000 1.000000
 1.000000 0.000000

4
 0.000000 1.000000
 1.000000 0.000000

8
 1.000000 0.000000
 0.000000 1.000000
 0.000000 1.000000
 0.000000 1.000000

8
 0.000000 1.000000
 1.000000 0.000000
 1.000000 0.000000
 1.000000 0.000000

4
 0.000000 1.000000
 1.000000 0.000000

8
 0.000000 1.000000
 0.000000 1.000000
 0.000000 1.000000
 1.000000 0.000000

8
 0.000000 1.000000
 1.000000 0.000000
 1.000000 0.000000
 1.000000 0.000000

2
 0.500000 0.500000

4
 0.000000 1.000000
 1.000000 0.000000

8
 0.000000 1.000000
 0.000000 1.000000
 0.000000 1.000000
 1.000000 0.000000

8
 0.000000 1.000000
 1.000000 0.000000
 1.000000 0.000000
 1.000000 0.000000

8
 1.000000 0.000000
 1.000000 0.000000
 1.000000 0.000000
 0.000000 1.000000

8
 1.000000 0.000000
 1.000000 0.000000
 1.000000 0.000000
 0.000000 1.000000

8
 0.000000 1.000000
 0.000000 1.000000
 0.000000 1.000000
 1.000000 0.000000

2
 0.500000 0.500000

4
 0.000000 1.000000
 1.000000 0.000000

8
 0.000000 1.000000
 0.000000 1.000000
 0.000000 1.000000
 1.000000 0.000000

8
 1.000000 0.000000
 1.000000 0.000000
 1.000000 0.000000
 0.000000 1.000000

4
 0.000000 1.000000
 1.000000 0.000000

16
 0.000000 1.000000
 1.000000 0.000000
 1.000000 0.000000
 1.000000 0.000000
 1.000000 0.000000
 1.000000 0.000000
 1.000000 0.000000
 1.000000 0.000000

8
 0.000000 1.000000
 0.000000 1.000000
 0.000000 1.000000
 1.000000 0.000000

16
 0.000000 1.000000
 1.000000 0.000000
 1.000000 0.000000
 1.000000 0.000000
 1.000000 0.000000
 1.000000 0.000000
 1.000000 0.000000
 1.000000 0.000000

8
 1.000000 0.000000
 0.000000 1.000000
 0.000000 1.000000
 0.000000 1.000000

2
 0.500000 0.500000

8
 1.000000 0.000000
 1.000000 0.000000
 1.000000 0.000000
 0.000000 1.000000

8
 0.000000 1.000000
 0.000000 1.000000
 0.000000 1.000000
 1.000000 0.000000

8
 1.000000 0.000000
 1.000000 0.000000
 1.000000 0.000000
 0.000000 1.000000

2
 0.500000 0.500000

4
 0.000000 1.000000
 1.000000 0.000000

8
 1.000000 0.000000
 0.000000 1.000000
 0.000000 1.000000
 0.000000 1.000000

4
 0.000000 1.000000
 1.000000 0.000000

8
 0.000000 1.000000
 0.000000 1.000000
 0.000000 1.000000
 1.000000 0.000000

8
 0.000000 1.000000
 1.000000 0.000000
 1.000000 0.000000
 1.000000 0.000000

4
 0.000000 1.000000
 1.000000 0.000000

8
 0.000000 1.000000
 1.000000 0.000000
 1.000000 0.000000
 1.000000 0.000000

8
 0.000000 1.000000
 0.000000 1.000000
 0.000000 1.000000
 1.000000 0.000000

8
 1.000000 0.000000
 1.000000 0.000000
 1.000000 0.000000
 0.000000 1.000000

4
 0.000000 1.000000
 1.000000 0.000000

2
 0.500000 0.500000

8
 0.000000 1.000000
 0.000000 1.000000
 0.000000 1.000000
 1.000000 0.000000

8
 1.000000 0.000000
 1.000000 0.000000
 1.000000 0.000000
 0.000000 1.000000

4
 0.000000 1.000000
 1.000000 0.000000

8
 0.000000 1.000000
 0.000000 1.000000
 0.000000 1.000000
 1.000000 0.000000

8
 1.000000 0.000000
 1.000000 0.000000
 1.000000 0.000000
 0.000000 1.000000

8
 0.000000 1.000000
 1.000000 0.000000
 1.000000 0.000000
 1.000000 0.000000

8
 0.000000 1.000000
 0.000000 1.000000
 0.000000 1.000000
 1.000000 0.000000

8
 0.000000 1.000000
 1.000000 0.000000
 1.000000 0.000000
 1.000000 0.000000

8
 0.000000 1.000000
 1.000000 0.000000
 1.000000 0.000000
 1.000000 0.000000

8
 0.000000 1.000000
 1.000000 0.000000
 1.000000 0.000000
 1.000000 0.000000

8
 0.000000 1.000000
 0.000000 1.000000
 0.000000 1.000000
 1.000000 0.000000

8
 1.000000 0.000000
 1.000000 0.000000
 1.000000 0.000000
 0.000000 1.000000

8
 0.000000 1.000000
 1.000000 0.000000
 1.000000 0.000000
 1.000000 0.000000

4
 0.000000 1.000000
 1.000000 0.000000

4
 0.000000 1.000000
 1.000000 0.000000

8
 1.000000 0.000000
 0.000000 1.000000
 0.000000 1.000000
 0.000000 1.000000

8
 1.000000 0.000000
 0.000000 1.000000
 0.000000 1.000000
 0.000000 1.000000

8
 0.000000 1.000000
 1.000000 0.000000
 1.000000 0.000000
 1.000000 0.000000

8
 1.000000 0.000000
 0.000000 1.000000
 0.000000 1.000000
 0.000000 1.000000

8
 0.000000 1.000000
 1.000000 0.000000
 1.000000 0.000000
 1.000000 0.000000

2
 0.500000 0.500000

8
 0.000000 1.000000
 0.000000 1.000000
 0.000000 1.000000
 1.000000 0.000000

8
 0.000000 1.000000
 1.000000 0.000000
 1.000000 0.000000
 1.000000 0.000000

8
 0.000000 1.000000
 0.000000 1.000000
 0.000000 1.000000
 1.000000 0.000000

4
 0.000000 1.000000
 1.000000 0.000000

2
 0.500000 0.500000

2
 0.500000 0.500000

8
 0.000000 1.000000
 1.000000 0.000000
 1.000000 0.000000
 1.000000 0.000000

8
 0.000000 1.000000
 1.000000 0.000000
 1.000000 0.000000
 1.000000 0.000000

8
 0.000000 1.000000
 1.000000 0.000000
 1.000000 0.000000
 1.000000 0.000000

8
 0.000000 1.000000
 1.000000 0.000000
 1.000000 0.000000
 1.000000 0.000000

8
 1.000000 0.000000
 1.000000 0.000000
 1.000000 0.000000
 0.000000 1.000000

8
 0.000000 1.000000
 1.000000 0.000000
 1.000000 0.000000
 1.000000 0.000000

8
 1.000000 0.000000
 0.000000 1.000000
 0.000000 1.000000
 0.000000 1.000000

8
 0.000000 1.000000
 0.000000 1.000000
 0.000000 1.000000
 1.000000 0.000000

2
 0.500000 0.500000

8
 0.000000 1.000000
 1.000000 0.000000
 1.000000 0.000000
 1.000000 0.000000

8
 0.000000 1.000000
 1.000000 0.000000
 1.000000 0.000000
 1.000000 0.000000

8
 0.000000 1.000000
 1.000000 0.000000
 1.000000 0.000000
 1.000000 0.000000

16
 0.000000 1.000000
 0.000000 1.000000
 0.000000 1.000000
 0.000000 1.000000
 0.000000 1.000000
 0.000000 1.000000
 0.000000 1.000000
 1.000000 0.000000

16
 0.000000 1.000000
 1.000000 0.000000
 1.000000 0.000000
 1.000000 0.000000
 1.000000 0.000000
 1.000000 0.000000
 1.000000 0.000000
 1.000000 0.000000

4
 0.000000 1.000000
 1.000000 0.000000

8
 0.000000 1.000000
 1.000000 0.000000
 1.000000 0.000000
 1.000000 0.000000

8
 0.000000 1.000000
 0.000000 1.000000
 0.000000 1.000000
 1.000000 0.000000

2
 0.500000 0.500000

2
 0.500000 0.500000

8
 0.000000 1.000000
 1.000000 0.000000
 1.000000 0.000000
 1.000000 0.000000

8
 1.000000 0.000000
 0.000000 1.000000
 0.000000 1.000000
 0.000000 1.000000

4
 0.000000 1.000000
 1.000000 0.000000

8
 1.000000 0.000000
 0.000000 1.000000
 0.000000 1.000000
 0.000000 1.000000

2
 0.500000 0.500000

2
 0.500000 0.500000

4
 0.000000 1.000000
 1.000000 0.000000

4
 0.000000 1.000000
 1.000000 0.000000

8
 0.000000 1.000000
 1.000000 0.000000
 1.000000 0.000000
 1.000000 0.000000

8
 0.000000 1.000000
 1.000000 0.000000
 1.000000 0.000000
 1.000000 0.000000

8
 0.000000 1.000000
 0.000000 1.000000
 0.000000 1.000000
 1.000000 0.000000

8
 0.000000 1.000000
 1.000000 0.000000
 1.000000 0.000000
 1.000000 0.000000

2
 0.500000 0.500000

4
 0.000000 1.000000
 1.000000 0.000000

2
 0.500000 0.500000

4
 0.000000 1.000000
 1.000000 0.000000

4
 0.000000 1.000000
 1.000000 0.000000

8
 0.000000 1.000000
 1.000000 0.000000
 1.000000 0.000000
 1.000000 0.000000

8
 1.000000 0.000000
 1.000000 0.000000
 1.000000 0.000000
 0.000000 1.000000

8
 0.000000 1.000000
 1.000000 0.000000
 1.000000 0.000000
 1.000000 0.000000

2
 0.500000 0.500000

4
 0.000000 1.000000
 1.000000 0.000000

4
 0.000000 1.000000
 1.000000 0.000000

8
 0.000000 1.000000
 1.000000 0.000000
 1.000000 0.000000
 1.000000 0.000000

8
 0.000000 1.000000
 1.000000 0.000000
 1.000000 0.000000
 1.000000 0.000000

4
 0.000000 1.000000
 1.000000 0.000000

8
 1.000000 0.000000
 0.000000 1.000000
 0.000000 1.000000
 0.000000 1.000000

2
 0.500000 0.500000

8
 1.000000 0.000000
 1.000000 0.000000
 1.000000 0.000000
 0.000000 1.000000

8
 0.000000 1.000000
 0.000000 1.000000
 0.000000 1.000000
 1.000000 0.000000

2
 0.500000 0.500000

4
 0.000000 1.000000
 1.000000 0.000000

4
 0.000000 1.000000
 1.000000 0.000000

8
 1.000000 0.000000
 0.000000 1.000000
 0.000000 1.000000
 0.000000 1.000000

2
 0.500000 0.500000

8
 1.000000 0.000000
 1.000000 0.000000
 1.000000 0.000000
 0.000000 1.000000

8
 0.000000 1.000000
 0.000000 1.000000
 0.000000 1.000000
 1.000000 0.000000

16
 0.000000 1.000000
 1.000000 0.000000
 1.000000 0.000000
 1.000000 0.000000
 1.000000 0.000000
 1.000000 0.000000
 1.000000 0.000000
 1.000000 0.000000

8
 0.000000 1.000000
 0.000000 1.000000
 0.000000 1.000000
 1.000000 0.000000

8
 1.000000 0.000000
 1.000000 0.000000
 1.000000 0.000000
 0.000000 1.000000

2
 0.500000 0.500000

8
 0.000000 1.000000
 1.000000 0.000000
 1.000000 0.000000
 1.000000 0.000000

4
 0.000000 1.000000
 1.000000 0.000000

4
 0.000000 1.000000
 1.000000 0.000000

4
 0.000000 1.000000
 1.000000 0.000000

4
 0.000000 1.000000
 1.000000 0.000000

4
 0.000000 1.000000
 1.000000 0.000000

16
 0.000000 1.000000
 0.000000 1.000000
 0.000000 1.000000
 0.000000 1.000000
 0.000000 1.000000
 0.000000 1.000000
 0.000000 1.000000
 1.000000 0.000000

8
 0.000000 1.000000
 1.000000 0.000000
 1.000000 0.000000
 1.000000 0.000000

16
 0.000000 1.000000
 1.000000 0.000000
 1.000000 0.000000
 1.000000 0.000000
 1.000000 0.000000
 1.000000 0.000000
 1.000000 0.000000
 1.000000 0.000000

16
 0.000000 1.000000
 0.000000 1.000000
 0.000000 1.000000
 0.000000 1.000000
 0.000000 1.000000
 0.000000 1.000000
 0.000000 1.000000
 1.000000 0.000000

8
 0.000000 1.000000
 1.000000 0.000000
 1.000000 0.000000
 1.000000 0.000000

8
 0.000000 1.000000
 0.000000 1.000000
 0.000000 1.000000
 1.000000 0.000000

8
 0.000000 1.000000
 1.000000 0.000000
 1.000000 0.000000
 1.000000 0.000000

8
 0.000000 1.000000
 1.000000 0.000000
 1.000000 0.000000
 1.000000 0.000000

2
 0.500000 0.500000

8
 0.000000 1.000000
 0.000000 1.000000
 0.000000 1.000000
 1.000000 0.000000

8
 0.000000 1.000000
 0.000000 1.000000
 0.000000 1.000000
 1.000000 0.000000

8
 1.000000 0.000000
 1.000000 0.000000
 1.000000 0.000000
 0.000000 1.000000

8
 1.000000 0.000000
 1.000000 0.000000
 1.000000 0.000000
 0.000000 1.000000

8
 0.000000 1.000000
 1.000000 0.000000
 1.000000 0.000000
 1.000000 0.000000

8
 0.000000 1.000000
 0.000000 1.000000
 0.000000 1.000000
 1.000000 0.000000

2
 0.500000 0.500000

8
 0.000000 1.000000
 0.000000 1.000000
 0.000000 1.000000
 1.000000 0.000000

16
 0.000000 1.000000
 0.000000 1.000000
 0.000000 1.000000
 0.000000 1.000000
 0.000000 1.000000
 0.000000 1.000000
 0.000000 1.000000
 1.000000 0.000000

4
 0.000000 1.000000
 1.000000 0.000000

8
 0.000000 1.000000
 0.000000 1.000000
 0.000000 1.000000
 1.000000 0.000000

16
 0.000000 1.000000
 1.000000 0.000000
 1.000000 0.000000
 1.000000 0.000000
 1.000000 0.000000
 1.000000 0.000000
 1.000000 0.000000
 1.000000 0.000000

8
 1.000000 0.000000
 1.000000 0.000000
 1.000000 0.000000
 0.000000 1.000000

8
 0.000000 1.000000
 1.000000 0.000000
 1.000000 0.000000
 1.000000 0.000000

8
 0.000000 1.000000
 0.000000 1.000000
 0.000000 1.000000
 1.000000 0.000000

8
 0.000000 1.000000
 0.000000 1.000000
 0.000000 1.000000
 1.000000 0.000000

4
 0.000000 1.000000
 1.000000 0.000000

4
 0.000000 1.000000
 1.000000 0.000000

8
 0.000000 1.000000
 0.000000 1.000000
 0.000000 1.000000
 1.000000 0.000000

8
 0.000000 1.000000
 0.000000 1.000000
 0.000000 1.000000
 1.000000 0.000000

8
 0.000000 1.000000
 1.000000 0.000000
 1.000000 0.000000
 1.000000 0.000000

8
 0.000000 1.000000
 0.000000 1.000000
 0.000000 1.000000
 1.000000 0.000000

8
 0.000000 1.000000
 1.000000 0.000000
 1.000000 0.000000
 1.000000 0.000000

16
 0.000000 1.000000
 0.000000 1.000000
 0.000000 1.000000
 0.000000 1.000000
 0.000000 1.000000
 0.000000 1.000000
 0.000000 1.000000
 1.000000 0.000000

8
 0.000000 1.000000
 1.000000 0.000000
 1.000000 0.000000
 1.000000 0.000000

2
 0.500000 0.500000

4
 0.000000 1.000000
 1.000000 0.000000

16
 0.000000 1.000000
 1.000000 0.000000
 1.000000 0.000000
 1.000000 0.000000
 1.000000 0.000000
 1.000000 0.000000
 1.000000 0.000000
 1.000000 0.000000

8
 0.000000 1.000000
 1.000000 0.000000
 1.000000 0.000000
 1.000000 0.000000

4
 0.000000 1.000000
 1.000000 0.000000

8
 0.000000 1.000000
 1.000000 0.000000
 1.000000 0.000000
 1.000000 0.000000

8
 0.000000 1.000000
 0.000000 1.000000
 0.000000 1.000000
 1.000000 0.000000

4
 0.000000 1.000000
 1.000000 0.000000

8
 1.000000 0.000000
 1.000000 0.000000
 1.000000 0.000000
 0.000000 1.000000

8
 0.000000 1.000000
 1.000000 0.000000
 1.000000 0.000000
 1.000000 0.000000

8
 0.000000 1.000000
 1.000000 0.000000
 1.000000 0.000000
 1.000000 0.000000

8
 1.000000 0.000000
 0.000000 1.000000
 0.000000 1.000000
 0.000000 1.000000

8
 0.000000 1.000000
 0.000000 1.000000
 0.000000 1.000000
 1.000000 0.000000

8
 0.000000 1.000000
 1.000000 0.000000
 1.000000 0.000000
 1.000000 0.000000

4
 0.000000 1.000000
 1.000000 0.000000

8
 0.000000 1.000000
 0.000000 1.000000
 0.000000 1.000000
 1.000000 0.000000

8
 0.000000 1.000000
 0.000000 1.000000
 0.000000 1.000000
 1.000000 0.000000

8
 0.000000 1.000000
 1.000000 0.000000
 1.000000 0.000000
 1.000000 0.000000

8
 0.000000 1.000000
 1.000000 0.000000
 1.000000 0.000000
 1.000000 0.000000

4
 0.000000 1.000000
 1.000000 0.000000

8
 0.000000 1.000000
 1.000000 0.000000
 1.000000 0.000000
 1.000000 0.000000

8
 0.000000 1.000000
 0.000000 1.000000
 0.000000 1.000000
 1.000000 0.000000

4
 0.000000 1.000000
 1.000000 0.000000

8
 0.000000 1.000000
 0.000000 1.000000
 0.000000 1.000000
 1.000000 0.000000

8
 1.000000 0.000000
 1.000000 0.000000
 1.000000 0.000000
 0.000000 1.000000

8
 0.000000 1.000000
 1.000000 0.000000
 1.000000 0.000000
 1.000000 0.000000

8
 1.000000 0.000000
 1.000000 0.000000
 1.000000 0.000000
 0.000000 1.000000

8
 1.000000 0.000000
 0.000000 1.000000
 0.000000 1.000000
 0.000000 1.000000

4
 0.000000 1.000000
 1.000000 0.000000

8
 0.000000 1.000000
 1.000000 0.000000
 1.000000 0.000000
 1.000000 0.000000

8
 0.000000 1.000000
 1.000000 0.000000
 1.000000 0.000000
 1.000000 0.000000

16
 0.000000 1.000000
 0.000000 1.000000
 0.000000 1.000000
 0.000000 1.000000
 0.000000 1.000000
 0.000000 1.000000
 0.000000 1.000000
 1.000000 0.000000

8
 0.000000 1.000000
 0.000000 1.000000
 0.000000 1.000000
 1.000000 0.000000

8
 0.000000 1.000000
 0.000000 1.000000
 0.000000 1.000000
 1.000000 0.000000

4
 0.000000 1.000000
 1.000000 0.000000

2
 0.500000 0.500000

8
 0.000000 1.000000
 1.000000 0.000000
 1.000000 0.000000
 1.000000 0.000000

4
 0.000000 1.000000
 1.000000 0.000000

4
 0.000000 1.000000
 1.000000 0.000000

8
 1.000000 0.000000
 0.000000 1.000000
 0.000000 1.000000
 0.000000 1.000000

8
 0.000000 1.000000
 1.000000 0.000000
 1.000000 0.000000
 1.000000 0.000000

8
 0.000000 1.000000
 0.000000 1.000000
 0.000000 1.000000
 1.000000 0.000000

2
 0.500000 0.500000

8
 0.000000 1.000000
 0.000000 1.000000
 0.000000 1.000000
 1.000000 0.000000

8
 0.000000 1.000000
 0.000000 1.000000
 0.000000 1.000000
 1.000000 0.000000

8
 1.000000 0.000000
 0.000000 1.000000
 0.000000 1.000000
 0.000000 1.000000

2
 0.500000 0.500000

2
 0.500000 0.500000

4
 0.000000 1.000000
 1.000000 0.000000

8
 1.000000 0.000000
 0.000000 1.000000
 0.000000 1.000000
 0.000000 1.000000

8
 1.000000 0.000000
 1.000000 0.000000
 1.000000 0.000000
 0.000000 1.000000

4
 0.000000 1.000000
 1.000000 0.000000

4
 0.000000 1.000000
 1.000000 0.000000

4
 0.000000 1.000000
 1.000000 0.000000

16
 0.000000 1.000000
 1.000000 0.000000
 1.000000 0.000000
 1.000000 0.000000
 1.000000 0.000000
 1.000000 0.000000
 1.000000 0.000000
 1.000000 0.000000

8
 0.000000 1.000000
 0.000000 1.000000
 0.000000 1.000000
 1.000000 0.000000

8
 0.000000 1.000000
 0.000000 1.000000
 0.000000 1.000000
 1.000000 0.000000

8
 0.000000 1.000000
 0.000000 1.000000
 0.000000 1.000000
 1.000000 0.000000

8
 0.000000 1.000000
 0.000000 1.000000
 0.000000 1.000000
 1.000000 0.000000

4
 0.000000 1.000000
 1.000000 0.000000

8
 0.000000 1.000000
 0.000000 1.000000
 0.000000 1.000000
 1.000000 0.000000

8
 0.000000 1.000000
 1.000000 0.000000
 1.000000 0.000000
 1.000000 0.000000

4
 0.000000 1.000000
 1.000000 0.000000

8
 0.000000 1.000000
 1.000000 0.000000
 1.000000 0.000000
 1.000000 0.000000

8
 0.000000 1.000000
 1.000000 0.000000
 1.000000 0.000000
 1.000000 0.000000

8
 1.000000 0.000000
 1.000000 0.000000
 1.000000 0.000000
 0.000000 1.000000

8
 0.000000 1.000000
 1.000000 0.000000
 1.000000 0.000000
 1.000000 0.000000

8
 1.000000 0.000000
 1.000000 0.000000
 1.000000 0.000000
 0.000000 1.000000

8
 0.000000 1.000000
 0.000000 1.000000
 0.000000 1.000000
 1.000000 0.000000

4
 0.000000 1.000000
 1.000000 0.000000

8
 0.000000 1.000000
 1.000000 0.000000
 1.000000 0.000000
 1.000000 0.000000

